
Gurobi 6.5.2 (mac64) logging started Thu Aug 11 12:26:35 2016

Warning for adding variables: zero or small (< 1e-13) coefficients, ignored
Optimize a model with 2 rows, 3 columns and 4 nonzeros
Coefficient statistics:
  Matrix range    [1e+00, 1e+00]
  Objective range [1e+00, 2e+00]
  Bounds range    [0e+00, 0e+00]
  RHS range       [1e+00, 1e+00]
Presolve removed 2 rows and 3 columns
Presolve time: 0.00s
Presolve: All rows and columns removed
Iteration    Objective       Primal Inf.    Dual Inf.      Time
       0    3.0000000e+00   0.000000e+00   0.000000e+00      0s

Solved in 0 iterations and 0.00 seconds
Optimal objective  3.000000000e+00

Gurobi 6.5.2 (mac64) logging started Thu Aug 11 12:26:35 2016

Optimize a model with 2 rows, 3 columns and 4 nonzeros
Coefficient statistics:
  Matrix range    [1e+00, 1e+00]
  Objective range [1e+00, 2e+00]
  Bounds range    [0e+00, 0e+00]
  RHS range       [1e+00, 1e+00]
Presolve removed 2 rows and 3 columns
Presolve time: 0.00s
Presolve: All rows and columns removed
Iteration    Objective       Primal Inf.    Dual Inf.      Time
       0    3.0000000e+00   0.000000e+00   0.000000e+00      0s

Solved in 0 iterations and 0.00 seconds
Optimal objective  3.000000000e+00

Gurobi 6.5.2 (mac64) logging started Thu Aug 11 12:26:35 2016

Optimize a model with 2 rows, 3 columns and 4 nonzeros
Coefficient statistics:
  Matrix range    [1e+00, 1e+00]
  Objective range [1e+00, 2e+00]
  Bounds range    [0e+00, 0e+00]
  RHS range       [1e+00, 1e+00]
Presolve removed 2 rows and 3 columns
Presolve time: 0.00s
Presolve: All rows and columns removed
Iteration    Objective       Primal Inf.    Dual Inf.      Time
       0    3.0000000e+00   0.000000e+00   0.000000e+00      0s

Solved in 0 iterations and 0.00 seconds
Optimal objective  3.000000000e+00

Gurobi 6.5.2 (mac64) logging started Thu Aug 11 12:28:34 2016

Optimize a model with 2 rows, 3 columns and 6 nonzeros
Coefficient statistics:
  Matrix range    [1e+00, 8e+00]
  Objective range [1e+00, 3e+00]
  Bounds range    [0e+00, 0e+00]
  RHS range       [4e+00, 7e+00]
Presolve time: 0.00s
Presolved: 2 rows, 3 columns, 6 nonzeros

Iteration    Objective       Primal Inf.    Dual Inf.      Time
       0    0.0000000e+00   1.875000e+00   0.000000e+00      0s
       2    2.8636364e+00   0.000000e+00   0.000000e+00      0s

Solved in 2 iterations and 0.00 seconds
Optimal objective  2.863636364e+00

Gurobi 6.5.2 (mac64) logging started Thu Aug 11 12:28:34 2016

Optimize a model with 2 rows, 3 columns and 6 nonzeros
Coefficient statistics:
  Matrix range    [1e+00, 8e+00]
  Objective range [1e+00, 3e+00]
  Bounds range    [0e+00, 0e+00]
  RHS range       [4e+00, 7e+00]
Iteration    Objective       Primal Inf.    Dual Inf.      Time
       0    2.8636364e+00   0.000000e+00   0.000000e+00      0s

Solved in 0 iterations and 0.00 seconds
Optimal objective  2.863636364e+00

Gurobi 6.5.2 (mac64) logging started Thu Aug 11 12:29:28 2016


Gurobi 6.5.2 (mac64) logging started Thu Aug 11 12:31:05 2016

Warning for adding variables: zero or small (< 1e-13) coefficients, ignored
Optimize a model with 2 rows, 3 columns and 5 nonzeros
Model has 5 quadratic objective terms
Coefficient statistics:
  Matrix range    [1e+00, 3e+00]
  Objective range [2e+00, 2e+00]
  Bounds range    [0e+00, 0e+00]
  RHS range       [1e+00, 4e+00]
Presolve time: 0.00s
Presolved: 2 rows, 3 columns, 5 nonzeros
Presolved model has 5 quadratic objective terms
Ordering time: 0.00s

Barrier statistics:
 Free vars  : 2
 AA' NZ     : 6.000e+00
 Factor NZ  : 1.000e+01
 Factor Ops : 3.000e+01 (less than 1 second per iteration)
 Threads    : 1

                  Objective                Residual
Iter       Primal          Dual         Primal    Dual     Compl     Time
   0   3.35725802e+05 -3.33725606e+05  1.50e+03 9.26e-07  9.99e+05     0s
   1   3.28462223e+05 -3.27132995e+05  1.50e-03 1.02e-12  1.31e+05     0s
   2   4.82803456e+04 -4.77713530e+04  1.50e-09 2.84e-14  1.92e+04     0s
   3   7.13388604e+03 -6.93805223e+03  1.42e-14 7.11e-14  2.81e+03     0s
   4   1.06861115e+03 -9.92318313e+02  1.07e-14 7.11e-15  4.12e+02     0s
   5   1.65933104e+02 -1.35184359e+02  5.33e-15 8.88e-15  6.02e+01     0s
   6   2.84219122e+01 -1.47570061e+01  1.33e-15 2.66e-15  8.64e+00     0s
   7   6.64727443e+00  1.48263332e+00  4.44e-16 4.44e-16  1.03e+00     0s
   8   4.42083527e+00  4.15552994e+00  2.22e-16 2.22e-16  5.31e-02     0s
   9   4.24122059e+00  4.21583046e+00  1.71e-14 4.44e-16  5.08e-03     0s
  10   4.22465270e+00  4.22195683e+00  2.80e-14 0.00e+00  5.39e-04     0s
  11   4.22227056e+00  4.22222127e+00  6.88e-15 1.11e-16  9.86e-06     0s
  12   4.22222227e+00  4.22222222e+00  1.61e-13 0.00e+00  9.83e-09     0s

Barrier solved model in 12 iterations and 0.00 seconds
Optimal objective 4.22222227e+00

